c 50_4_checker.cnf
c
c field = 50
c formula set type = 4_checker
c
p cnf 5 58
90 
92 
94 
96 
-100 
91 
93 
95 
97 
-101 
92 
94 
96 
100 
-90 
93 
95 
97 
101 
-91 
92 
94 
96 
100 
-102 
93 
95 
97 
101 
-103 
94 
96 
100 
102 
-92 
95 
97 
101 
103 
-93 
94 
96 
100 
102 
-104 
95 
97 
101 
103 
-105 
96 
100 
102 
104 
-94 
97 
101 
103 
105 
-95 
96 
100 
102 
104 
-106 
97 
101 
103 
105 
-107 
100 
102 
104 
106 
-96 
101 
103 
105 
107 
-97 
100 
102 
104 
106 
-108 
101 
103 
105 
107 
-109 
8 
38 
68 
128 
-158 
9 
39 
69 
129 
-159 
38 
68 
128 
158 
-8 
39 
69 
129 
159 
-9 
38 
68 
128 
158 
-188 
39 
69 
129 
159 
-189 
68 
128 
158 
188 
-38 
69 
129 
159 
189 
-39 
68 
128 
158 
188 
-218 
69 
129 
159 
189 
-219 
128 
158 
188 
218 
-68 
129 
159 
189 
219 
-69 
128 
158 
188 
218 
-248 
129 
159 
189 
219 
-249 
2 
34 
66 
130 
-162 
3 
35 
67 
131 
-163 
34 
66 
130 
162 
-2 
35 
67 
131 
163 
-3 
34 
66 
130 
162 
-194 
35 
67 
131 
163 
-195 
66 
130 
162 
194 
-34 
67 
131 
163 
195 
-35 
66 
130 
162 
194 
-226 
67 
131 
163 
195 
-227 
130 
162 
194 
226 
-66 
131 
163 
195 
227 
-67 
130 
162 
194 
226 
-258 
131 
163 
195 
227 
-259 
14 
42 
70 
126 
-154 
15 
43 
71 
127 
-155 
42 
70 
126 
154 
-14 
43 
71 
127 
155 
-15 
42 
70 
126 
154 
-182 
43 
71 
127 
155 
-183 
70 
126 
154 
182 
-42 
71 
127 
155 
183 
-43 
70 
126 
154 
182 
-210 
71 
127 
155 
183 
-211 
126 
154 
182 
210 
-70 
127 
155 
183 
211 
-71 
